(declare-const delta_i Int)
(declare-const delta_cnt Int)
(declare-const delta_j Int)
(assert (exists
         ((|cnt'?1| Int) (|S1,0?2| Real) (|i'?3| Int) (KSUM1?4 Int)
            (|K1,0?5| Int) (K?6 Int) (|cnt'?7| Int) (|j'?8| Int) (|i'?9| Int)
            (length?10 Int) (cnt?11 Int) (i?12 Int) (maxgrid?13 Int)
            (j?14 Int))
         (and (<= (- j?14) 0) (<= (+ (- maxgrid?13) j?14 1) 0) (<= (- K?6) 0)
                (<= (- |K1,0?5|) 0) (= (+ |K1,0?5| (- K?6)) 0)
                (<= (+ KSUM1?4 (- K?6)) 0)
                (= (+ (- |S1,0?2|) |i'?3| (- |K1,0?5|)) 0)
                (= (+ (- KSUM1?4) |K1,0?5|) 0) (= (+ |S1,0?2| (- j?14)) 0)
                (or (and (= K?6 0) (= (+ (- |cnt'?1|) cnt?11) 0)
                           (= (+ (- |i'?3|) j?14) 0))
                      (and (<= (+ (- K?6) 1) 0)
                             (<= (+ (- maxgrid?13) j?14 1) 0) (<= (- j?14) 0)
                             (<= (+ |i'?3| (- maxgrid?13)) 0)
                             (<= (+ length?10 (- |cnt'?1|)) 0)
                             (<= (- |cnt'?1|) 0) (<= (+ (- |i'?3|) 1) 0)))
                (= (+ |i'?3| (- K?6) (- j?14)) 0) (<= (- K?6) 0)
                (<= (- |i'?3|) 0) (< (- maxgrid?13) 0)
                (< (+ (- |i'?3|) maxgrid?13 -1) 0)
                (= (+ |cnt'?7| (- |cnt'?1|)) 0) (= (+ |j'?8| (- j?14) -1) 0)
                (= (+ |i'?9| (- |i'?3|)) 0) (= delta_i (+ |i'?9| (- i?12)))
                (= delta_j (+ |j'?8| (- j?14)))
                (= delta_cnt (+ |cnt'?7| (- cnt?11))))))
(check-sat)
